TCS_Benchmarks/redos_fix/regexlib2_output_distinct_3589_3588_1627_0.txt
(3|(4|52|5(3|51)50)(51|(4|550)50)*(2|530|(4|550)(1|40))|5(3|51)(1|40))+(3|(4|52|5(3|51)50)(51|(4|550)50)*(2|530|(4|550)(1|40))|5520)+
(3|(4|52|5(3|51)50)(51|(4|550)50)*(2|530|(4|550)(1|40))|5520)+
5.*